NAME : MM13_depots
COMMENT : Instance 13 in MD algorithm. Coordinates of depots and vhcl speeds given.
TYPE : TSP
DIMENSION : 10
EDGE_WEIGHT_TYPE : ATT
NODE_COORD_SECTION
151 75.3025 45.3429 1
152 48.1377 48.4770 1
153 95.4844 48.4203 1
154 16.0127 28.1074 1
155 53.3086 76.7624 1
156 79.4255 68.3671 1
157 42.6890 44.5856 1
158 31.4857 55.3484 1
159 61.2524 61.1174 1
160 1.7678 6.4381 1
EOF
